# Solution for model r3_t9_m8_3 Batch Number: 1
# Finished Task: 9 / 9
# Makespan: 493.0, Total Distance: 297.0, Total Time: 0.2887
# R O S F Batch
0 0 8 0.0 0.0 -1
1 1 7 0.0 0.0 -1
2 2 6 0.0 0.0 -1
3 2 -1 458.0 493.0 0
4 1 -1 431.0 463.0 0
5 1 9 299.0 332.0 0
6 2 10 115.0 136.0 0
7 1 11 136.0 170.0 0
8 0 -1 463.0 493.0 0
9 1 4 357.0 393.0 0
10 2 3 312.0 351.0 0
11 1 5 231.0 256.0 0
